; benchmark generated from python API
(set-info :status unknown)
(declare-fun x_months () (_ BitVec 32))
(declare-fun x_beta () (_ BitVec 32))
(declare-fun y_months () (_ BitVec 32))
(declare-fun y_beta () (_ BitVec 32))
(assert
 (bvsle (_ bv4294966096 32) x_months))
(assert
 (bvsge (_ bv1199 32) x_months))
(assert
 (let ((?x10883 (bvsmod x_months (_ bv48 32))))
 (let ((?x13 ((as const (Array (_ BitVec 32) (_ BitVec 32))) (_ bv0 32))))
 (let ((?x15 (store ?x13 (_ bv0 32) (_ bv31 32))))
 (let ((?x18 (store ?x15 (_ bv1 32) (_ bv30 32))))
 (let ((?x20 (store ?x18 (_ bv2 32) (_ bv31 32))))
 (let ((?x22 (store ?x20 (_ bv3 32) (_ bv30 32))))
 (let ((?x24 (store ?x22 (_ bv4 32) (_ bv31 32))))
 (let ((?x26 (store ?x24 (_ bv5 32) (_ bv31 32))))
 (let ((?x28 (store ?x26 (_ bv6 32) (_ bv30 32))))
 (let ((?x30 (store ?x28 (_ bv7 32) (_ bv31 32))))
 (let ((?x32 (store ?x30 (_ bv8 32) (_ bv30 32))))
 (let ((?x34 (store ?x32 (_ bv9 32) (_ bv31 32))))
 (let ((?x36 (store ?x34 (_ bv10 32) (_ bv31 32))))
 (let ((?x39 (store ?x36 (_ bv11 32) (_ bv28 32))))
 (let ((?x41 (store ?x39 (_ bv12 32) (_ bv31 32))))
 (let ((?x43 (store ?x41 (_ bv13 32) (_ bv30 32))))
 (let ((?x45 (store ?x43 (_ bv14 32) (_ bv31 32))))
 (let ((?x47 (store ?x45 (_ bv15 32) (_ bv30 32))))
 (let ((?x49 (store ?x47 (_ bv16 32) (_ bv31 32))))
 (let ((?x51 (store ?x49 (_ bv17 32) (_ bv31 32))))
 (let ((?x53 (store ?x51 (_ bv18 32) (_ bv30 32))))
 (let ((?x55 (store ?x53 (_ bv19 32) (_ bv31 32))))
 (let ((?x57 (store ?x55 (_ bv20 32) (_ bv30 32))))
 (let ((?x59 (store ?x57 (_ bv21 32) (_ bv31 32))))
 (let ((?x61 (store ?x59 (_ bv22 32) (_ bv31 32))))
 (let ((?x63 (store ?x61 (_ bv23 32) (_ bv28 32))))
 (let ((?x65 (store ?x63 (_ bv24 32) (_ bv31 32))))
 (let ((?x67 (store ?x65 (_ bv25 32) (_ bv30 32))))
 (let ((?x69 (store ?x67 (_ bv26 32) (_ bv31 32))))
 (let ((?x71 (store ?x69 (_ bv27 32) (_ bv30 32))))
 (let ((?x72 (store ?x71 (_ bv28 32) (_ bv31 32))))
 (let ((?x74 (store ?x72 (_ bv29 32) (_ bv31 32))))
 (let ((?x75 (store ?x74 (_ bv30 32) (_ bv30 32))))
 (let ((?x76 (store ?x75 (_ bv31 32) (_ bv31 32))))
 (let ((?x78 (store ?x76 (_ bv32 32) (_ bv30 32))))
 (let ((?x80 (store ?x78 (_ bv33 32) (_ bv31 32))))
 (let ((?x82 (store ?x80 (_ bv34 32) (_ bv31 32))))
 (let ((?x84 (store ?x82 (_ bv35 32) (_ bv28 32))))
 (let ((?x86 (store ?x84 (_ bv36 32) (_ bv31 32))))
 (let ((?x88 (store ?x86 (_ bv37 32) (_ bv30 32))))
 (let ((?x90 (store ?x88 (_ bv38 32) (_ bv31 32))))
 (let ((?x92 (store ?x90 (_ bv39 32) (_ bv30 32))))
 (let ((?x94 (store ?x92 (_ bv40 32) (_ bv31 32))))
 (let ((?x96 (store ?x94 (_ bv41 32) (_ bv31 32))))
 (let ((?x98 (store ?x96 (_ bv42 32) (_ bv30 32))))
 (let ((?x100 (store ?x98 (_ bv43 32) (_ bv31 32))))
 (let ((?x102 (store ?x100 (_ bv44 32) (_ bv30 32))))
 (let ((?x104 (store ?x102 (_ bv45 32) (_ bv31 32))))
 (let ((?x106 (store ?x104 (_ bv46 32) (_ bv31 32))))
 (let ((?x108 (store ?x106 (_ bv47 32) (_ bv29 32))))
 (let (($x85980 (or (= (_ bv22802 32) (bvadd x_months (_ bv24003 32))) (= (_ bv25202 32) (bvadd x_months (_ bv24003 32))))))
 (let ((?x15743 (ite $x85980 (_ bv28 32) (select ?x108 ?x10883))))
 (let (($x26273 (bvsle (_ bv0 32) x_beta)))
 (and $x26273 (bvslt x_beta ?x15743))))))))))))))))))))))))))))))))))))))))))))))))))))))))
(assert
 (bvsle (_ bv4294966096 32) y_months))
(assert
 (bvsge (_ bv1199 32) y_months))
(assert
 (let ((?x14261 (bvsmod y_months (_ bv48 32))))
 (let ((?x13 ((as const (Array (_ BitVec 32) (_ BitVec 32))) (_ bv0 32))))
 (let ((?x15 (store ?x13 (_ bv0 32) (_ bv31 32))))
 (let ((?x18 (store ?x15 (_ bv1 32) (_ bv30 32))))
 (let ((?x20 (store ?x18 (_ bv2 32) (_ bv31 32))))
 (let ((?x22 (store ?x20 (_ bv3 32) (_ bv30 32))))
 (let ((?x24 (store ?x22 (_ bv4 32) (_ bv31 32))))
 (let ((?x26 (store ?x24 (_ bv5 32) (_ bv31 32))))
 (let ((?x28 (store ?x26 (_ bv6 32) (_ bv30 32))))
 (let ((?x30 (store ?x28 (_ bv7 32) (_ bv31 32))))
 (let ((?x32 (store ?x30 (_ bv8 32) (_ bv30 32))))
 (let ((?x34 (store ?x32 (_ bv9 32) (_ bv31 32))))
 (let ((?x36 (store ?x34 (_ bv10 32) (_ bv31 32))))
 (let ((?x39 (store ?x36 (_ bv11 32) (_ bv28 32))))
 (let ((?x41 (store ?x39 (_ bv12 32) (_ bv31 32))))
 (let ((?x43 (store ?x41 (_ bv13 32) (_ bv30 32))))
 (let ((?x45 (store ?x43 (_ bv14 32) (_ bv31 32))))
 (let ((?x47 (store ?x45 (_ bv15 32) (_ bv30 32))))
 (let ((?x49 (store ?x47 (_ bv16 32) (_ bv31 32))))
 (let ((?x51 (store ?x49 (_ bv17 32) (_ bv31 32))))
 (let ((?x53 (store ?x51 (_ bv18 32) (_ bv30 32))))
 (let ((?x55 (store ?x53 (_ bv19 32) (_ bv31 32))))
 (let ((?x57 (store ?x55 (_ bv20 32) (_ bv30 32))))
 (let ((?x59 (store ?x57 (_ bv21 32) (_ bv31 32))))
 (let ((?x61 (store ?x59 (_ bv22 32) (_ bv31 32))))
 (let ((?x63 (store ?x61 (_ bv23 32) (_ bv28 32))))
 (let ((?x65 (store ?x63 (_ bv24 32) (_ bv31 32))))
 (let ((?x67 (store ?x65 (_ bv25 32) (_ bv30 32))))
 (let ((?x69 (store ?x67 (_ bv26 32) (_ bv31 32))))
 (let ((?x71 (store ?x69 (_ bv27 32) (_ bv30 32))))
 (let ((?x72 (store ?x71 (_ bv28 32) (_ bv31 32))))
 (let ((?x74 (store ?x72 (_ bv29 32) (_ bv31 32))))
 (let ((?x75 (store ?x74 (_ bv30 32) (_ bv30 32))))
 (let ((?x76 (store ?x75 (_ bv31 32) (_ bv31 32))))
 (let ((?x78 (store ?x76 (_ bv32 32) (_ bv30 32))))
 (let ((?x80 (store ?x78 (_ bv33 32) (_ bv31 32))))
 (let ((?x82 (store ?x80 (_ bv34 32) (_ bv31 32))))
 (let ((?x84 (store ?x82 (_ bv35 32) (_ bv28 32))))
 (let ((?x86 (store ?x84 (_ bv36 32) (_ bv31 32))))
 (let ((?x88 (store ?x86 (_ bv37 32) (_ bv30 32))))
 (let ((?x90 (store ?x88 (_ bv38 32) (_ bv31 32))))
 (let ((?x92 (store ?x90 (_ bv39 32) (_ bv30 32))))
 (let ((?x94 (store ?x92 (_ bv40 32) (_ bv31 32))))
 (let ((?x96 (store ?x94 (_ bv41 32) (_ bv31 32))))
 (let ((?x98 (store ?x96 (_ bv42 32) (_ bv30 32))))
 (let ((?x100 (store ?x98 (_ bv43 32) (_ bv31 32))))
 (let ((?x102 (store ?x100 (_ bv44 32) (_ bv30 32))))
 (let ((?x104 (store ?x102 (_ bv45 32) (_ bv31 32))))
 (let ((?x106 (store ?x104 (_ bv46 32) (_ bv31 32))))
 (let ((?x108 (store ?x106 (_ bv47 32) (_ bv29 32))))
 (let (($x58479 (or (= (_ bv22802 32) (bvadd y_months (_ bv24003 32))) (= (_ bv25202 32) (bvadd y_months (_ bv24003 32))))))
 (let ((?x35679 (ite $x58479 (_ bv28 32) (select ?x108 ?x14261))))
 (let (($x29009 (bvsle (_ bv0 32) y_beta)))
 (and $x29009 (bvslt y_beta ?x35679))))))))))))))))))))))))))))))))))))))))))))))))))))))))
(assert
 (and (= x_months (bvsub (bvadd (bvmul (_ bv2020 32) (_ bv12 32)) (_ bv2 32)) (_ bv24003 32))) (= (_ bv28 32) x_beta)))
(assert
 (let ((?x34104 (bvadd x_months (_ bv12 32))))
 (let ((?x34082 (bvsmod ?x34104 (_ bv48 32))))
 (let ((?x85324 (ite (bvsgt (_ bv22803 32) (bvadd ?x34104 (_ bv24003 32))) (_ bv1 32) (ite (bvsle (_ bv25203 32) (bvadd ?x34104 (_ bv24003 32))) (_ bv4294967295 32) (_ bv0 32)))))
 (let ((?x13 ((as const (Array (_ BitVec 32) (_ BitVec 32))) (_ bv0 32))))
 (let ((?x15 (store ?x13 (_ bv0 32) (_ bv31 32))))
 (let ((?x18 (store ?x15 (_ bv1 32) (_ bv30 32))))
 (let ((?x20 (store ?x18 (_ bv2 32) (_ bv31 32))))
 (let ((?x22 (store ?x20 (_ bv3 32) (_ bv30 32))))
 (let ((?x24 (store ?x22 (_ bv4 32) (_ bv31 32))))
 (let ((?x26 (store ?x24 (_ bv5 32) (_ bv31 32))))
 (let ((?x28 (store ?x26 (_ bv6 32) (_ bv30 32))))
 (let ((?x30 (store ?x28 (_ bv7 32) (_ bv31 32))))
 (let ((?x32 (store ?x30 (_ bv8 32) (_ bv30 32))))
 (let ((?x34 (store ?x32 (_ bv9 32) (_ bv31 32))))
 (let ((?x36 (store ?x34 (_ bv10 32) (_ bv31 32))))
 (let ((?x39 (store ?x36 (_ bv11 32) (_ bv28 32))))
 (let ((?x41 (store ?x39 (_ bv12 32) (_ bv31 32))))
 (let ((?x43 (store ?x41 (_ bv13 32) (_ bv30 32))))
 (let ((?x45 (store ?x43 (_ bv14 32) (_ bv31 32))))
 (let ((?x47 (store ?x45 (_ bv15 32) (_ bv30 32))))
 (let ((?x49 (store ?x47 (_ bv16 32) (_ bv31 32))))
 (let ((?x51 (store ?x49 (_ bv17 32) (_ bv31 32))))
 (let ((?x53 (store ?x51 (_ bv18 32) (_ bv30 32))))
 (let ((?x55 (store ?x53 (_ bv19 32) (_ bv31 32))))
 (let ((?x57 (store ?x55 (_ bv20 32) (_ bv30 32))))
 (let ((?x59 (store ?x57 (_ bv21 32) (_ bv31 32))))
 (let ((?x61 (store ?x59 (_ bv22 32) (_ bv31 32))))
 (let ((?x63 (store ?x61 (_ bv23 32) (_ bv28 32))))
 (let ((?x65 (store ?x63 (_ bv24 32) (_ bv31 32))))
 (let ((?x67 (store ?x65 (_ bv25 32) (_ bv30 32))))
 (let ((?x69 (store ?x67 (_ bv26 32) (_ bv31 32))))
 (let ((?x71 (store ?x69 (_ bv27 32) (_ bv30 32))))
 (let ((?x72 (store ?x71 (_ bv28 32) (_ bv31 32))))
 (let ((?x74 (store ?x72 (_ bv29 32) (_ bv31 32))))
 (let ((?x75 (store ?x74 (_ bv30 32) (_ bv30 32))))
 (let ((?x76 (store ?x75 (_ bv31 32) (_ bv31 32))))
 (let ((?x78 (store ?x76 (_ bv32 32) (_ bv30 32))))
 (let ((?x80 (store ?x78 (_ bv33 32) (_ bv31 32))))
 (let ((?x82 (store ?x80 (_ bv34 32) (_ bv31 32))))
 (let ((?x84 (store ?x82 (_ bv35 32) (_ bv28 32))))
 (let ((?x86 (store ?x84 (_ bv36 32) (_ bv31 32))))
 (let ((?x88 (store ?x86 (_ bv37 32) (_ bv30 32))))
 (let ((?x90 (store ?x88 (_ bv38 32) (_ bv31 32))))
 (let ((?x92 (store ?x90 (_ bv39 32) (_ bv30 32))))
 (let ((?x94 (store ?x92 (_ bv40 32) (_ bv31 32))))
 (let ((?x96 (store ?x94 (_ bv41 32) (_ bv31 32))))
 (let ((?x98 (store ?x96 (_ bv42 32) (_ bv30 32))))
 (let ((?x100 (store ?x98 (_ bv43 32) (_ bv31 32))))
 (let ((?x102 (store ?x100 (_ bv44 32) (_ bv30 32))))
 (let ((?x104 (store ?x102 (_ bv45 32) (_ bv31 32))))
 (let ((?x106 (store ?x104 (_ bv46 32) (_ bv31 32))))
 (let ((?x108 (store ?x106 (_ bv47 32) (_ bv29 32))))
 (let ((?x18681 (ite (or (= (_ bv22802 32) (bvadd ?x34104 (_ bv24003 32))) (= (_ bv25202 32) (bvadd ?x34104 (_ bv24003 32)))) (_ bv28 32) (select ?x108 ?x34082))))
 (let ((?x58613 (bvsub ?x18681 (_ bv1 32))))
 (let ((?x975 (ite (bvsgt (_ bv0 32) x_beta) (_ bv0 32) (ite (bvsgt x_beta ?x58613) ?x58613 x_beta))))
 (let ((?x114 (store (store (store (store ?x13 (_ bv0 32) (_ bv0 32)) (_ bv1 32) (_ bv31 32)) (_ bv2 32) (_ bv61 32)) (_ bv3 32) (_ bv92 32))))
 (let ((?x122 (store (store (store (store ?x114 (_ bv4 32) (_ bv122 32)) (_ bv5 32) (_ bv153 32)) (_ bv6 32) (_ bv184 32)) (_ bv7 32) (_ bv214 32))))
 (let ((?x130 (store (store (store (store ?x122 (_ bv8 32) (_ bv245 32)) (_ bv9 32) (_ bv275 32)) (_ bv10 32) (_ bv306 32)) (_ bv11 32) (_ bv337 32))))
 (let ((?x138 (store (store (store (store ?x130 (_ bv12 32) (_ bv365 32)) (_ bv13 32) (_ bv396 32)) (_ bv14 32) (_ bv426 32)) (_ bv15 32) (_ bv457 32))))
 (let ((?x146 (store (store (store (store ?x138 (_ bv16 32) (_ bv487 32)) (_ bv17 32) (_ bv518 32)) (_ bv18 32) (_ bv549 32)) (_ bv19 32) (_ bv579 32))))
 (let ((?x154 (store (store (store (store ?x146 (_ bv20 32) (_ bv610 32)) (_ bv21 32) (_ bv640 32)) (_ bv22 32) (_ bv671 32)) (_ bv23 32) (_ bv702 32))))
 (let ((?x162 (store (store (store (store ?x154 (_ bv24 32) (_ bv730 32)) (_ bv25 32) (_ bv761 32)) (_ bv26 32) (_ bv791 32)) (_ bv27 32) (_ bv822 32))))
 (let ((?x170 (store (store (store (store ?x162 (_ bv28 32) (_ bv852 32)) (_ bv29 32) (_ bv883 32)) (_ bv30 32) (_ bv914 32)) (_ bv31 32) (_ bv944 32))))
 (let ((?x178 (store (store (store (store ?x170 (_ bv32 32) (_ bv975 32)) (_ bv33 32) (_ bv1005 32)) (_ bv34 32) (_ bv1036 32)) (_ bv35 32) (_ bv1067 32))))
 (let ((?x186 (store (store (store (store ?x178 (_ bv36 32) (_ bv1095 32)) (_ bv37 32) (_ bv1126 32)) (_ bv38 32) (_ bv1156 32)) (_ bv39 32) (_ bv1187 32))))
 (let ((?x194 (store (store (store (store ?x186 (_ bv40 32) (_ bv1217 32)) (_ bv41 32) (_ bv1248 32)) (_ bv42 32) (_ bv1279 32)) (_ bv43 32) (_ bv1309 32))))
 (let ((?x202 (store (store (store (store ?x194 (_ bv44 32) (_ bv1340 32)) (_ bv45 32) (_ bv1370 32)) (_ bv46 32) (_ bv1401 32)) (_ bv47 32) (_ bv1432 32))))
 (let ((?x25636 (bvadd (bvadd (bvadd (select ?x202 ?x34082) ?x975) ?x85324) (_ bv0 32))))
 (let ((?x63903 (ite (bvuge ?x25636 (_ bv2147483648 32)) (bvsub ?x25636 (_ bv0 32)) ?x25636)))
 (let ((?x5700 (bvsdiv ?x63903 (_ bv1461 32))))
 (let ((?x51498 (ite (and (bvuge ?x63903 (_ bv2147483648 32)) (and (distinct (_ bv0 32) (bvsmod ?x63903 (_ bv1461 32))) true)) (bvsub ?x5700 (_ bv1 32)) ?x5700)))
 (let ((?x61937 (bvadd ?x34104 (bvmul ?x51498 (_ bv48 32)))))
 (let ((?x79561 (bvadd (bvadd ?x61937 (bvsub (_ bv1 32) ?x34082)) (_ bv24003 32))))
 (let ((?x34017 (bvadd (select ?x202 (_ bv1 32)) (ite (bvsgt (_ bv22803 32) ?x79561) (_ bv1 32) (ite (bvsle (_ bv25203 32) ?x79561) (_ bv4294967295 32) (_ bv0 32))))))
 (let ((?x81761 (bvsmod ?x25636 (_ bv1461 32))))
 (let ((?x35016 (ite (bvsle (_ bv25203 32) (bvadd (bvadd ?x61937 (bvsub (_ bv2 32) ?x34082)) (_ bv24003 32))) (_ bv4294967295 32) (_ bv0 32))))
 (let ((?x84229 (ite (bvsgt (_ bv22803 32) (bvadd (bvadd ?x61937 (bvsub (_ bv2 32) ?x34082)) (_ bv24003 32))) (_ bv1 32) ?x35016)))
 (let ((?x65046 (ite (bvsge ?x81761 (bvadd (select ?x202 (_ bv2 32)) ?x84229)) (_ bv2 32) (ite (bvsge ?x81761 ?x34017) (_ bv1 32) (_ bv0 32)))))
 (let ((?x34363 (ite (bvsle (_ bv25203 32) (bvadd (bvadd ?x61937 (bvsub (_ bv3 32) ?x34082)) (_ bv24003 32))) (_ bv4294967295 32) (_ bv0 32))))
 (let ((?x23175 (ite (bvsgt (_ bv22803 32) (bvadd (bvadd ?x61937 (bvsub (_ bv3 32) ?x34082)) (_ bv24003 32))) (_ bv1 32) ?x34363)))
 (let ((?x34781 (ite (bvsle (_ bv25203 32) (bvadd (bvadd ?x61937 (bvsub (_ bv4 32) ?x34082)) (_ bv24003 32))) (_ bv4294967295 32) (_ bv0 32))))
 (let ((?x25772 (ite (bvsgt (_ bv22803 32) (bvadd (bvadd ?x61937 (bvsub (_ bv4 32) ?x34082)) (_ bv24003 32))) (_ bv1 32) ?x34781)))
 (let ((?x84638 (ite (bvsge ?x81761 (bvadd (select ?x202 (_ bv4 32)) ?x25772)) (_ bv4 32) (ite (bvsge ?x81761 (bvadd (select ?x202 (_ bv3 32)) ?x23175)) (_ bv3 32) ?x65046))))
 (let ((?x57164 (ite (bvsle (_ bv25203 32) (bvadd (bvadd ?x61937 (bvsub (_ bv5 32) ?x34082)) (_ bv24003 32))) (_ bv4294967295 32) (_ bv0 32))))
 (let ((?x33671 (ite (bvsgt (_ bv22803 32) (bvadd (bvadd ?x61937 (bvsub (_ bv5 32) ?x34082)) (_ bv24003 32))) (_ bv1 32) ?x57164)))
 (let ((?x34697 (ite (bvsle (_ bv25203 32) (bvadd (bvadd ?x61937 (bvsub (_ bv6 32) ?x34082)) (_ bv24003 32))) (_ bv4294967295 32) (_ bv0 32))))
 (let ((?x28981 (ite (bvsgt (_ bv22803 32) (bvadd (bvadd ?x61937 (bvsub (_ bv6 32) ?x34082)) (_ bv24003 32))) (_ bv1 32) ?x34697)))
 (let ((?x80888 (ite (bvsge ?x81761 (bvadd (select ?x202 (_ bv6 32)) ?x28981)) (_ bv6 32) (ite (bvsge ?x81761 (bvadd (select ?x202 (_ bv5 32)) ?x33671)) (_ bv5 32) ?x84638))))
 (let ((?x25821 (ite (bvsle (_ bv25203 32) (bvadd (bvadd ?x61937 (bvsub (_ bv7 32) ?x34082)) (_ bv24003 32))) (_ bv4294967295 32) (_ bv0 32))))
 (let ((?x34822 (ite (bvsgt (_ bv22803 32) (bvadd (bvadd ?x61937 (bvsub (_ bv7 32) ?x34082)) (_ bv24003 32))) (_ bv1 32) ?x25821)))
 (let ((?x35803 (ite (bvsle (_ bv25203 32) (bvadd (bvadd ?x61937 (bvsub (_ bv8 32) ?x34082)) (_ bv24003 32))) (_ bv4294967295 32) (_ bv0 32))))
 (let ((?x64833 (ite (bvsgt (_ bv22803 32) (bvadd (bvadd ?x61937 (bvsub (_ bv8 32) ?x34082)) (_ bv24003 32))) (_ bv1 32) ?x35803)))
 (let ((?x31683 (ite (bvsge ?x81761 (bvadd (select ?x202 (_ bv8 32)) ?x64833)) (_ bv8 32) (ite (bvsge ?x81761 (bvadd (select ?x202 (_ bv7 32)) ?x34822)) (_ bv7 32) ?x80888))))
 (let ((?x36811 (ite (bvsle (_ bv25203 32) (bvadd (bvadd ?x61937 (bvsub (_ bv9 32) ?x34082)) (_ bv24003 32))) (_ bv4294967295 32) (_ bv0 32))))
 (let ((?x14648 (ite (bvsgt (_ bv22803 32) (bvadd (bvadd ?x61937 (bvsub (_ bv9 32) ?x34082)) (_ bv24003 32))) (_ bv1 32) ?x36811)))
 (let ((?x20419 (ite (bvsle (_ bv25203 32) (bvadd (bvadd ?x61937 (bvsub (_ bv10 32) ?x34082)) (_ bv24003 32))) (_ bv4294967295 32) (_ bv0 32))))
 (let ((?x69200 (ite (bvsgt (_ bv22803 32) (bvadd (bvadd ?x61937 (bvsub (_ bv10 32) ?x34082)) (_ bv24003 32))) (_ bv1 32) ?x20419)))
 (let ((?x33933 (ite (bvsge ?x81761 (bvadd (select ?x202 (_ bv10 32)) ?x69200)) (_ bv10 32) (ite (bvsge ?x81761 (bvadd (select ?x202 (_ bv9 32)) ?x14648)) (_ bv9 32) ?x31683))))
 (let ((?x80703 (ite (bvsle (_ bv25203 32) (bvadd (bvadd ?x61937 (bvsub (_ bv11 32) ?x34082)) (_ bv24003 32))) (_ bv4294967295 32) (_ bv0 32))))
 (let ((?x4745 (ite (bvsgt (_ bv22803 32) (bvadd (bvadd ?x61937 (bvsub (_ bv11 32) ?x34082)) (_ bv24003 32))) (_ bv1 32) ?x80703)))
 (let ((?x15767 (ite (bvsle (_ bv25203 32) (bvadd (bvadd ?x61937 (bvsub (_ bv12 32) ?x34082)) (_ bv24003 32))) (_ bv4294967295 32) (_ bv0 32))))
 (let ((?x34395 (ite (bvsgt (_ bv22803 32) (bvadd (bvadd ?x61937 (bvsub (_ bv12 32) ?x34082)) (_ bv24003 32))) (_ bv1 32) ?x15767)))
 (let ((?x26879 (ite (bvsge ?x81761 (bvadd (select ?x202 (_ bv12 32)) ?x34395)) (_ bv12 32) (ite (bvsge ?x81761 (bvadd (select ?x202 (_ bv11 32)) ?x4745)) (_ bv11 32) ?x33933))))
 (let ((?x27082 (ite (bvsle (_ bv25203 32) (bvadd (bvadd ?x61937 (bvsub (_ bv13 32) ?x34082)) (_ bv24003 32))) (_ bv4294967295 32) (_ bv0 32))))
 (let ((?x6130 (ite (bvsgt (_ bv22803 32) (bvadd (bvadd ?x61937 (bvsub (_ bv13 32) ?x34082)) (_ bv24003 32))) (_ bv1 32) ?x27082)))
 (let ((?x18915 (ite (bvsle (_ bv25203 32) (bvadd (bvadd ?x61937 (bvsub (_ bv14 32) ?x34082)) (_ bv24003 32))) (_ bv4294967295 32) (_ bv0 32))))
 (let ((?x27672 (ite (bvsgt (_ bv22803 32) (bvadd (bvadd ?x61937 (bvsub (_ bv14 32) ?x34082)) (_ bv24003 32))) (_ bv1 32) ?x18915)))
 (let ((?x23706 (ite (bvsge ?x81761 (bvadd (select ?x202 (_ bv14 32)) ?x27672)) (_ bv14 32) (ite (bvsge ?x81761 (bvadd (select ?x202 (_ bv13 32)) ?x6130)) (_ bv13 32) ?x26879))))
 (let ((?x2247 (ite (bvsle (_ bv25203 32) (bvadd (bvadd ?x61937 (bvsub (_ bv15 32) ?x34082)) (_ bv24003 32))) (_ bv4294967295 32) (_ bv0 32))))
 (let ((?x33724 (ite (bvsgt (_ bv22803 32) (bvadd (bvadd ?x61937 (bvsub (_ bv15 32) ?x34082)) (_ bv24003 32))) (_ bv1 32) ?x2247)))
 (let ((?x33961 (ite (bvsle (_ bv25203 32) (bvadd (bvadd ?x61937 (bvsub (_ bv16 32) ?x34082)) (_ bv24003 32))) (_ bv4294967295 32) (_ bv0 32))))
 (let ((?x28517 (ite (bvsgt (_ bv22803 32) (bvadd (bvadd ?x61937 (bvsub (_ bv16 32) ?x34082)) (_ bv24003 32))) (_ bv1 32) ?x33961)))
 (let ((?x61723 (ite (bvsge ?x81761 (bvadd (select ?x202 (_ bv16 32)) ?x28517)) (_ bv16 32) (ite (bvsge ?x81761 (bvadd (select ?x202 (_ bv15 32)) ?x33724)) (_ bv15 32) ?x23706))))
 (let ((?x84299 (ite (bvsle (_ bv25203 32) (bvadd (bvadd ?x61937 (bvsub (_ bv17 32) ?x34082)) (_ bv24003 32))) (_ bv4294967295 32) (_ bv0 32))))
 (let ((?x13764 (ite (bvsgt (_ bv22803 32) (bvadd (bvadd ?x61937 (bvsub (_ bv17 32) ?x34082)) (_ bv24003 32))) (_ bv1 32) ?x84299)))
 (let ((?x22874 (ite (bvsle (_ bv25203 32) (bvadd (bvadd ?x61937 (bvsub (_ bv18 32) ?x34082)) (_ bv24003 32))) (_ bv4294967295 32) (_ bv0 32))))
 (let ((?x7653 (ite (bvsgt (_ bv22803 32) (bvadd (bvadd ?x61937 (bvsub (_ bv18 32) ?x34082)) (_ bv24003 32))) (_ bv1 32) ?x22874)))
 (let ((?x34776 (ite (bvsge ?x81761 (bvadd (select ?x202 (_ bv18 32)) ?x7653)) (_ bv18 32) (ite (bvsge ?x81761 (bvadd (select ?x202 (_ bv17 32)) ?x13764)) (_ bv17 32) ?x61723))))
 (let ((?x29422 (ite (bvsle (_ bv25203 32) (bvadd (bvadd ?x61937 (bvsub (_ bv19 32) ?x34082)) (_ bv24003 32))) (_ bv4294967295 32) (_ bv0 32))))
 (let ((?x29481 (ite (bvsgt (_ bv22803 32) (bvadd (bvadd ?x61937 (bvsub (_ bv19 32) ?x34082)) (_ bv24003 32))) (_ bv1 32) ?x29422)))
 (let ((?x28905 (ite (bvsle (_ bv25203 32) (bvadd (bvadd ?x61937 (bvsub (_ bv20 32) ?x34082)) (_ bv24003 32))) (_ bv4294967295 32) (_ bv0 32))))
 (let ((?x23097 (ite (bvsgt (_ bv22803 32) (bvadd (bvadd ?x61937 (bvsub (_ bv20 32) ?x34082)) (_ bv24003 32))) (_ bv1 32) ?x28905)))
 (let ((?x22799 (ite (bvsge ?x81761 (bvadd (select ?x202 (_ bv20 32)) ?x23097)) (_ bv20 32) (ite (bvsge ?x81761 (bvadd (select ?x202 (_ bv19 32)) ?x29481)) (_ bv19 32) ?x34776))))
 (let ((?x26218 (ite (bvsle (_ bv25203 32) (bvadd (bvadd ?x61937 (bvsub (_ bv21 32) ?x34082)) (_ bv24003 32))) (_ bv4294967295 32) (_ bv0 32))))
 (let ((?x29300 (ite (bvsgt (_ bv22803 32) (bvadd (bvadd ?x61937 (bvsub (_ bv21 32) ?x34082)) (_ bv24003 32))) (_ bv1 32) ?x26218)))
 (let ((?x58215 (ite (bvsle (_ bv25203 32) (bvadd (bvadd ?x61937 (bvsub (_ bv22 32) ?x34082)) (_ bv24003 32))) (_ bv4294967295 32) (_ bv0 32))))
 (let ((?x84627 (ite (bvsgt (_ bv22803 32) (bvadd (bvadd ?x61937 (bvsub (_ bv22 32) ?x34082)) (_ bv24003 32))) (_ bv1 32) ?x58215)))
 (let ((?x8784 (ite (bvsge ?x81761 (bvadd (select ?x202 (_ bv22 32)) ?x84627)) (_ bv22 32) (ite (bvsge ?x81761 (bvadd (select ?x202 (_ bv21 32)) ?x29300)) (_ bv21 32) ?x22799))))
 (let ((?x58221 (ite (bvsle (_ bv25203 32) (bvadd (bvadd ?x61937 (bvsub (_ bv23 32) ?x34082)) (_ bv24003 32))) (_ bv4294967295 32) (_ bv0 32))))
 (let ((?x65047 (ite (bvsgt (_ bv22803 32) (bvadd (bvadd ?x61937 (bvsub (_ bv23 32) ?x34082)) (_ bv24003 32))) (_ bv1 32) ?x58221)))
 (let ((?x58517 (ite (bvsle (_ bv25203 32) (bvadd (bvadd ?x61937 (bvsub (_ bv24 32) ?x34082)) (_ bv24003 32))) (_ bv4294967295 32) (_ bv0 32))))
 (let ((?x16111 (ite (bvsgt (_ bv22803 32) (bvadd (bvadd ?x61937 (bvsub (_ bv24 32) ?x34082)) (_ bv24003 32))) (_ bv1 32) ?x58517)))
 (let ((?x33874 (ite (bvsge ?x81761 (bvadd (select ?x202 (_ bv24 32)) ?x16111)) (_ bv24 32) (ite (bvsge ?x81761 (bvadd (select ?x202 (_ bv23 32)) ?x65047)) (_ bv23 32) ?x8784))))
 (let ((?x23192 (ite (bvsle (_ bv25203 32) (bvadd (bvadd ?x61937 (bvsub (_ bv25 32) ?x34082)) (_ bv24003 32))) (_ bv4294967295 32) (_ bv0 32))))
 (let ((?x33737 (ite (bvsgt (_ bv22803 32) (bvadd (bvadd ?x61937 (bvsub (_ bv25 32) ?x34082)) (_ bv24003 32))) (_ bv1 32) ?x23192)))
 (let ((?x58618 (ite (bvsle (_ bv25203 32) (bvadd (bvadd ?x61937 (bvsub (_ bv26 32) ?x34082)) (_ bv24003 32))) (_ bv4294967295 32) (_ bv0 32))))
 (let ((?x61931 (ite (bvsgt (_ bv22803 32) (bvadd (bvadd ?x61937 (bvsub (_ bv26 32) ?x34082)) (_ bv24003 32))) (_ bv1 32) ?x58618)))
 (let ((?x33628 (ite (bvsge ?x81761 (bvadd (select ?x202 (_ bv26 32)) ?x61931)) (_ bv26 32) (ite (bvsge ?x81761 (bvadd (select ?x202 (_ bv25 32)) ?x33737)) (_ bv25 32) ?x33874))))
 (let ((?x28079 (ite (bvsle (_ bv25203 32) (bvadd (bvadd ?x61937 (bvsub (_ bv27 32) ?x34082)) (_ bv24003 32))) (_ bv4294967295 32) (_ bv0 32))))
 (let ((?x34195 (ite (bvsgt (_ bv22803 32) (bvadd (bvadd ?x61937 (bvsub (_ bv27 32) ?x34082)) (_ bv24003 32))) (_ bv1 32) ?x28079)))
 (let ((?x29781 (ite (bvsle (_ bv25203 32) (bvadd (bvadd ?x61937 (bvsub (_ bv28 32) ?x34082)) (_ bv24003 32))) (_ bv4294967295 32) (_ bv0 32))))
 (let ((?x8295 (ite (bvsgt (_ bv22803 32) (bvadd (bvadd ?x61937 (bvsub (_ bv28 32) ?x34082)) (_ bv24003 32))) (_ bv1 32) ?x29781)))
 (let ((?x17829 (ite (bvsge ?x81761 (bvadd (select ?x202 (_ bv28 32)) ?x8295)) (_ bv28 32) (ite (bvsge ?x81761 (bvadd (select ?x202 (_ bv27 32)) ?x34195)) (_ bv27 32) ?x33628))))
 (let ((?x22051 (ite (bvsle (_ bv25203 32) (bvadd (bvadd ?x61937 (bvsub (_ bv29 32) ?x34082)) (_ bv24003 32))) (_ bv4294967295 32) (_ bv0 32))))
 (let ((?x87928 (ite (bvsgt (_ bv22803 32) (bvadd (bvadd ?x61937 (bvsub (_ bv29 32) ?x34082)) (_ bv24003 32))) (_ bv1 32) ?x22051)))
 (let ((?x41421 (ite (bvsle (_ bv25203 32) (bvadd (bvadd ?x61937 (bvsub (_ bv30 32) ?x34082)) (_ bv24003 32))) (_ bv4294967295 32) (_ bv0 32))))
 (let ((?x21413 (ite (bvsgt (_ bv22803 32) (bvadd (bvadd ?x61937 (bvsub (_ bv30 32) ?x34082)) (_ bv24003 32))) (_ bv1 32) ?x41421)))
 (let ((?x85872 (ite (bvsge ?x81761 (bvadd (select ?x202 (_ bv30 32)) ?x21413)) (_ bv30 32) (ite (bvsge ?x81761 (bvadd (select ?x202 (_ bv29 32)) ?x87928)) (_ bv29 32) ?x17829))))
 (let ((?x82284 (ite (bvsle (_ bv25203 32) (bvadd (bvadd ?x61937 (bvsub (_ bv31 32) ?x34082)) (_ bv24003 32))) (_ bv4294967295 32) (_ bv0 32))))
 (let ((?x36407 (ite (bvsgt (_ bv22803 32) (bvadd (bvadd ?x61937 (bvsub (_ bv31 32) ?x34082)) (_ bv24003 32))) (_ bv1 32) ?x82284)))
 (let ((?x65495 (ite (bvsle (_ bv25203 32) (bvadd (bvadd ?x61937 (bvsub (_ bv32 32) ?x34082)) (_ bv24003 32))) (_ bv4294967295 32) (_ bv0 32))))
 (let ((?x50632 (ite (bvsgt (_ bv22803 32) (bvadd (bvadd ?x61937 (bvsub (_ bv32 32) ?x34082)) (_ bv24003 32))) (_ bv1 32) ?x65495)))
 (let ((?x19256 (ite (bvsge ?x81761 (bvadd (select ?x202 (_ bv32 32)) ?x50632)) (_ bv32 32) (ite (bvsge ?x81761 (bvadd (select ?x202 (_ bv31 32)) ?x36407)) (_ bv31 32) ?x85872))))
 (let ((?x65232 (ite (bvsle (_ bv25203 32) (bvadd (bvadd ?x61937 (bvsub (_ bv33 32) ?x34082)) (_ bv24003 32))) (_ bv4294967295 32) (_ bv0 32))))
 (let ((?x65095 (ite (bvsgt (_ bv22803 32) (bvadd (bvadd ?x61937 (bvsub (_ bv33 32) ?x34082)) (_ bv24003 32))) (_ bv1 32) ?x65232)))
 (let ((?x49160 (ite (bvsle (_ bv25203 32) (bvadd (bvadd ?x61937 (bvsub (_ bv34 32) ?x34082)) (_ bv24003 32))) (_ bv4294967295 32) (_ bv0 32))))
 (let ((?x46507 (ite (bvsgt (_ bv22803 32) (bvadd (bvadd ?x61937 (bvsub (_ bv34 32) ?x34082)) (_ bv24003 32))) (_ bv1 32) ?x49160)))
 (let ((?x23791 (ite (bvsge ?x81761 (bvadd (select ?x202 (_ bv34 32)) ?x46507)) (_ bv34 32) (ite (bvsge ?x81761 (bvadd (select ?x202 (_ bv33 32)) ?x65095)) (_ bv33 32) ?x19256))))
 (let ((?x34602 (ite (bvsle (_ bv25203 32) (bvadd (bvadd ?x61937 (bvsub (_ bv35 32) ?x34082)) (_ bv24003 32))) (_ bv4294967295 32) (_ bv0 32))))
 (let ((?x27314 (ite (bvsgt (_ bv22803 32) (bvadd (bvadd ?x61937 (bvsub (_ bv35 32) ?x34082)) (_ bv24003 32))) (_ bv1 32) ?x34602)))
 (let ((?x35094 (ite (bvsle (_ bv25203 32) (bvadd (bvadd ?x61937 (bvsub (_ bv36 32) ?x34082)) (_ bv24003 32))) (_ bv4294967295 32) (_ bv0 32))))
 (let ((?x33784 (ite (bvsgt (_ bv22803 32) (bvadd (bvadd ?x61937 (bvsub (_ bv36 32) ?x34082)) (_ bv24003 32))) (_ bv1 32) ?x35094)))
 (let ((?x33665 (ite (bvsge ?x81761 (bvadd (select ?x202 (_ bv36 32)) ?x33784)) (_ bv36 32) (ite (bvsge ?x81761 (bvadd (select ?x202 (_ bv35 32)) ?x27314)) (_ bv35 32) ?x23791))))
 (let ((?x35118 (ite (bvsle (_ bv25203 32) (bvadd (bvadd ?x61937 (bvsub (_ bv37 32) ?x34082)) (_ bv24003 32))) (_ bv4294967295 32) (_ bv0 32))))
 (let ((?x34339 (ite (bvsgt (_ bv22803 32) (bvadd (bvadd ?x61937 (bvsub (_ bv37 32) ?x34082)) (_ bv24003 32))) (_ bv1 32) ?x35118)))
 (let ((?x72449 (ite (bvsle (_ bv25203 32) (bvadd (bvadd ?x61937 (bvsub (_ bv38 32) ?x34082)) (_ bv24003 32))) (_ bv4294967295 32) (_ bv0 32))))
 (let ((?x5934 (ite (bvsgt (_ bv22803 32) (bvadd (bvadd ?x61937 (bvsub (_ bv38 32) ?x34082)) (_ bv24003 32))) (_ bv1 32) ?x72449)))
 (let ((?x24709 (ite (bvsge ?x81761 (bvadd (select ?x202 (_ bv38 32)) ?x5934)) (_ bv38 32) (ite (bvsge ?x81761 (bvadd (select ?x202 (_ bv37 32)) ?x34339)) (_ bv37 32) ?x33665))))
 (let ((?x72744 (ite (bvsle (_ bv25203 32) (bvadd (bvadd ?x61937 (bvsub (_ bv39 32) ?x34082)) (_ bv24003 32))) (_ bv4294967295 32) (_ bv0 32))))
 (let ((?x72781 (ite (bvsgt (_ bv22803 32) (bvadd (bvadd ?x61937 (bvsub (_ bv39 32) ?x34082)) (_ bv24003 32))) (_ bv1 32) ?x72744)))
 (let ((?x26290 (ite (bvsle (_ bv25203 32) (bvadd (bvadd ?x61937 (bvsub (_ bv40 32) ?x34082)) (_ bv24003 32))) (_ bv4294967295 32) (_ bv0 32))))
 (let ((?x20659 (ite (bvsgt (_ bv22803 32) (bvadd (bvadd ?x61937 (bvsub (_ bv40 32) ?x34082)) (_ bv24003 32))) (_ bv1 32) ?x26290)))
 (let ((?x23914 (ite (bvsge ?x81761 (bvadd (select ?x202 (_ bv40 32)) ?x20659)) (_ bv40 32) (ite (bvsge ?x81761 (bvadd (select ?x202 (_ bv39 32)) ?x72781)) (_ bv39 32) ?x24709))))
 (let ((?x81707 (ite (bvsle (_ bv25203 32) (bvadd (bvadd ?x61937 (bvsub (_ bv41 32) ?x34082)) (_ bv24003 32))) (_ bv4294967295 32) (_ bv0 32))))
 (let ((?x33563 (ite (bvsgt (_ bv22803 32) (bvadd (bvadd ?x61937 (bvsub (_ bv41 32) ?x34082)) (_ bv24003 32))) (_ bv1 32) ?x81707)))
 (let ((?x62008 (ite (bvsle (_ bv25203 32) (bvadd (bvadd ?x61937 (bvsub (_ bv42 32) ?x34082)) (_ bv24003 32))) (_ bv4294967295 32) (_ bv0 32))))
 (let ((?x29059 (ite (bvsgt (_ bv22803 32) (bvadd (bvadd ?x61937 (bvsub (_ bv42 32) ?x34082)) (_ bv24003 32))) (_ bv1 32) ?x62008)))
 (let ((?x72871 (ite (bvsge ?x81761 (bvadd (select ?x202 (_ bv42 32)) ?x29059)) (_ bv42 32) (ite (bvsge ?x81761 (bvadd (select ?x202 (_ bv41 32)) ?x33563)) (_ bv41 32) ?x23914))))
 (let ((?x5674 (ite (bvsle (_ bv25203 32) (bvadd (bvadd ?x61937 (bvsub (_ bv43 32) ?x34082)) (_ bv24003 32))) (_ bv4294967295 32) (_ bv0 32))))
 (let ((?x1848 (ite (bvsgt (_ bv22803 32) (bvadd (bvadd ?x61937 (bvsub (_ bv43 32) ?x34082)) (_ bv24003 32))) (_ bv1 32) ?x5674)))
 (let ((?x58128 (ite (bvsle (_ bv25203 32) (bvadd (bvadd ?x61937 (bvsub (_ bv44 32) ?x34082)) (_ bv24003 32))) (_ bv4294967295 32) (_ bv0 32))))
 (let ((?x85625 (ite (bvsgt (_ bv22803 32) (bvadd (bvadd ?x61937 (bvsub (_ bv44 32) ?x34082)) (_ bv24003 32))) (_ bv1 32) ?x58128)))
 (let ((?x19322 (ite (bvsge ?x81761 (bvadd (select ?x202 (_ bv44 32)) ?x85625)) (_ bv44 32) (ite (bvsge ?x81761 (bvadd (select ?x202 (_ bv43 32)) ?x1848)) (_ bv43 32) ?x72871))))
 (let ((?x80683 (ite (bvsle (_ bv25203 32) (bvadd (bvadd ?x61937 (bvsub (_ bv45 32) ?x34082)) (_ bv24003 32))) (_ bv4294967295 32) (_ bv0 32))))
 (let ((?x16201 (ite (bvsgt (_ bv22803 32) (bvadd (bvadd ?x61937 (bvsub (_ bv45 32) ?x34082)) (_ bv24003 32))) (_ bv1 32) ?x80683)))
 (let ((?x34367 (ite (bvsle (_ bv25203 32) (bvadd (bvadd ?x61937 (bvsub (_ bv46 32) ?x34082)) (_ bv24003 32))) (_ bv4294967295 32) (_ bv0 32))))
 (let ((?x24039 (ite (bvsgt (_ bv22803 32) (bvadd (bvadd ?x61937 (bvsub (_ bv46 32) ?x34082)) (_ bv24003 32))) (_ bv1 32) ?x34367)))
 (let ((?x23268 (ite (bvsge ?x81761 (bvadd (select ?x202 (_ bv46 32)) ?x24039)) (_ bv46 32) (ite (bvsge ?x81761 (bvadd (select ?x202 (_ bv45 32)) ?x16201)) (_ bv45 32) ?x19322))))
 (let ((?x58341 (ite (bvsle (_ bv25203 32) (bvadd (bvadd ?x61937 (bvsub (_ bv47 32) ?x34082)) (_ bv24003 32))) (_ bv4294967295 32) (_ bv0 32))))
 (let ((?x58112 (ite (bvsgt (_ bv22803 32) (bvadd (bvadd ?x61937 (bvsub (_ bv47 32) ?x34082)) (_ bv24003 32))) (_ bv1 32) ?x58341)))
 (let ((?x81450 (ite (bvsge ?x81761 (bvadd (select ?x202 (_ bv47 32)) ?x58112)) (_ bv47 32) ?x23268)))
 (let ((?x19157 (bvadd ?x61937 (bvsub ?x81450 ?x34082))))
 (let ((?x28488 (bvadd ?x19157 (_ bv24003 32))))
 (let ((?x58491 (bvadd (select ?x202 ?x81450) (ite (bvsgt (_ bv22803 32) ?x28488) (_ bv1 32) (ite (bvsle (_ bv25203 32) ?x28488) (_ bv4294967295 32) (_ bv0 32))))))
 (let ((?x69189 (bvsub ?x81761 ?x58491)))
 (let ((?x29307 (ite (or (= (_ bv22802 32) ?x28488) (= (_ bv25202 32) ?x28488)) (_ bv28 32) (select ?x108 ?x81450))))
 (let ((?x2915 (ite (= (_ bv1 32) (ite (bvsge ?x69189 ?x29307) (_ bv1 32) (_ bv0 32))) (bvsub ?x69189 ?x29307) ?x69189)))
 (and (= y_months (bvadd ?x19157 (ite (bvsge ?x69189 ?x29307) (_ bv1 32) (_ bv0 32)))) (= y_beta ?x2915))))))))))))))))))))))))))))))))))))))))))))))))))))))))))))))))))))))))))))))))))))))))))))))))))))))))))))))))))))))))))))))))))))))))))))))))))))))))))))))))))))))))))))))))))))))))))))))))))))))))
(assert
 (let (($x34597 (and (= y_months (bvsub (bvadd (bvmul (_ bv2021 32) (_ bv12 32)) (_ bv2 32)) (_ bv24003 32))) (= (_ bv27 32) y_beta))))
(not $x34597)))
(check-sat)
